min: T;
T > T1;
T > T2;
T > T3;
T > T4;
10000 > d12;
1000 > d21 + d23 + d24;
Tzk1 = 1 * d12 + 1 * d21;
Trk2 > Tzk1 + 2 * d23 -10000000 + 10000000 * x34;
Trk3 > Tzk1 + 2 * d24 + -10000000 * x34;
Tzk2 = Tzk1 + 2 * d23 + Trk3;
Tzk3 = Tzk1 + 2 * d24 + Trk2;
Tzk > Tzk2;
Tzk > Tzk3;
T1 > Tzk1 + 30000 + -3 * d12 + 3 * d21;
T2 > Tzk + 2000 + 2 * d12 + -2 * d21 + -2 * d23 + -2 * d24;
T3 > Tzk2 + 1 * d23;
T4 > Tzk3 + 2 * d24;
int x34, d12, d21, d23, d24;